T = 150;
V = 20;
Q = 15;
L = 5;
C = 9;
P = 20;
time = [|  0,  4,  0,  4,  7,  0, 29,  0, 29, 27,  0,  0, 27, 27,  4, 29, 29, 27,  0,  7,  7,  0, 29,  0, 29,  7, 27,  7,  4, 29,  4, 29,  4, 29,  0,  0,  4, 29,  4, 27, 18, 18, 18, 18, 18, 18, 18, 18, 18, 18, 18, 18, 18, 18, 18, 18, 18, 18, 18, 18, 18, 18, 18, 18, 18, 18, 18, 18, 18, 18, 18, 18, 18, 18, 18, 18, 18, 18, 18, 18,
        |  4,  0,  4,  0, 10,  4, 29,  4, 29, 24,  4,  4, 24, 24,  0, 29, 29, 24,  4, 10, 10,  4, 29,  4, 29, 10, 24, 10,  0, 29,  0, 29,  0, 29,  4,  4,  0, 29,  0, 24, 17, 17, 17, 17, 17, 17, 17, 17, 17, 17, 17, 17, 17, 17, 17, 17, 17, 17, 17, 17, 17, 17, 17, 17, 17, 17, 17, 17, 17, 17, 17, 17, 17, 17, 17, 17, 17, 17, 17, 17,
        |  0,  4,  0,  4,  7,  0, 29,  0, 29, 27,  0,  0, 27, 27,  4, 29, 29, 27,  0,  7,  7,  0, 29,  0, 29,  7, 27,  7,  4, 29,  4, 29,  4, 29,  0,  0,  4, 29,  4, 27, 18, 18, 18, 18, 18, 18, 18, 18, 18, 18, 18, 18, 18, 18, 18, 18, 18, 18, 18, 18, 18, 18, 18, 18, 18, 18, 18, 18, 18, 18, 18, 18, 18, 18, 18, 18, 18, 18, 18, 18,
        |  4,  0,  4,  0, 10,  4, 29,  4, 29, 24,  4,  4, 24, 24,  0, 29, 29, 24,  4, 10, 10,  4, 29,  4, 29, 10, 24, 10,  0, 29,  0, 29,  0, 29,  4,  4,  0, 29,  0, 24, 17, 17, 17, 17, 17, 17, 17, 17, 17, 17, 17, 17, 17, 17, 17, 17, 17, 17, 17, 17, 17, 17, 17, 17, 17, 17, 17, 17, 17, 17, 17, 17, 17, 17, 17, 17, 17, 17, 17, 17,
        |  7, 10,  7, 10,  0,  7, 28,  7, 28, 32,  7,  7, 32, 32, 10, 28, 28, 32,  7,  0,  0,  7, 28,  7, 28,  0, 32,  0, 10, 28, 10, 28, 10, 28,  7,  7, 10, 28, 10, 32, 17, 17, 17, 17, 17, 17, 17, 17, 17, 17, 17, 17, 17, 17, 17, 17, 17, 17, 17, 17, 17, 17, 17, 17, 17, 17, 17, 17, 17, 17, 17, 17, 17, 17, 17, 17, 17, 17, 17, 17,
        |  0,  4,  0,  4,  7,  0, 29,  0, 29, 27,  0,  0, 27, 27,  4, 29, 29, 27,  0,  7,  7,  0, 29,  0, 29,  7, 27,  7,  4, 29,  4, 29,  4, 29,  0,  0,  4, 29,  4, 27, 18, 18, 18, 18, 18, 18, 18, 18, 18, 18, 18, 18, 18, 18, 18, 18, 18, 18, 18, 18, 18, 18, 18, 18, 18, 18, 18, 18, 18, 18, 18, 18, 18, 18, 18, 18, 18, 18, 18, 18,
        | 29, 29, 29, 29, 28, 29,  0, 29,  0, 27, 29, 29, 27, 27, 29,  0,  0, 27, 29, 28, 28, 29,  0, 29,  0, 28, 27, 28, 29,  0, 29,  0, 29,  0, 29, 29, 29,  0, 29, 27, 12, 12, 12, 12, 12, 12, 12, 12, 12, 12, 12, 12, 12, 12, 12, 12, 12, 12, 12, 12, 12, 12, 12, 12, 12, 12, 12, 12, 12, 12, 12, 12, 12, 12, 12, 12, 12, 12, 12, 12,
        |  0,  4,  0,  4,  7,  0, 29,  0, 29, 27,  0,  0, 27, 27,  4, 29, 29, 27,  0,  7,  7,  0, 29,  0, 29,  7, 27,  7,  4, 29,  4, 29,  4, 29,  0,  0,  4, 29,  4, 27, 18, 18, 18, 18, 18, 18, 18, 18, 18, 18, 18, 18, 18, 18, 18, 18, 18, 18, 18, 18, 18, 18, 18, 18, 18, 18, 18, 18, 18, 18, 18, 18, 18, 18, 18, 18, 18, 18, 18, 18,
        | 29, 29, 29, 29, 28, 29,  0, 29,  0, 27, 29, 29, 27, 27, 29,  0,  0, 27, 29, 28, 28, 29,  0, 29,  0, 28, 27, 28, 29,  0, 29,  0, 29,  0, 29, 29, 29,  0, 29, 27, 12, 12, 12, 12, 12, 12, 12, 12, 12, 12, 12, 12, 12, 12, 12, 12, 12, 12, 12, 12, 12, 12, 12, 12, 12, 12, 12, 12, 12, 12, 12, 12, 12, 12, 12, 12, 12, 12, 12, 12,
        | 27, 24, 27, 24, 32, 27, 27, 27, 27,  0, 27, 27,  0,  0, 24, 27, 27,  0, 27, 32, 32, 27, 27, 27, 27, 32,  0, 32, 24, 27, 24, 27, 24, 27, 27, 27, 24, 27, 24,  0, 22, 22, 22, 22, 22, 22, 22, 22, 22, 22, 22, 22, 22, 22, 22, 22, 22, 22, 22, 22, 22, 22, 22, 22, 22, 22, 22, 22, 22, 22, 22, 22, 22, 22, 22, 22, 22, 22, 22, 22,
        |  0,  4,  0,  4,  7,  0, 29,  0, 29, 27,  0,  0, 27, 27,  4, 29, 29, 27,  0,  7,  7,  0, 29,  0, 29,  7, 27,  7,  4, 29,  4, 29,  4, 29,  0,  0,  4, 29,  4, 27, 18, 18, 18, 18, 18, 18, 18, 18, 18, 18, 18, 18, 18, 18, 18, 18, 18, 18, 18, 18, 18, 18, 18, 18, 18, 18, 18, 18, 18, 18, 18, 18, 18, 18, 18, 18, 18, 18, 18, 18,
        |  0,  4,  0,  4,  7,  0, 29,  0, 29, 27,  0,  0, 27, 27,  4, 29, 29, 27,  0,  7,  7,  0, 29,  0, 29,  7, 27,  7,  4, 29,  4, 29,  4, 29,  0,  0,  4, 29,  4, 27, 18, 18, 18, 18, 18, 18, 18, 18, 18, 18, 18, 18, 18, 18, 18, 18, 18, 18, 18, 18, 18, 18, 18, 18, 18, 18, 18, 18, 18, 18, 18, 18, 18, 18, 18, 18, 18, 18, 18, 18,
        | 27, 24, 27, 24, 32, 27, 27, 27, 27,  0, 27, 27,  0,  0, 24, 27, 27,  0, 27, 32, 32, 27, 27, 27, 27, 32,  0, 32, 24, 27, 24, 27, 24, 27, 27, 27, 24, 27, 24,  0, 22, 22, 22, 22, 22, 22, 22, 22, 22, 22, 22, 22, 22, 22, 22, 22, 22, 22, 22, 22, 22, 22, 22, 22, 22, 22, 22, 22, 22, 22, 22, 22, 22, 22, 22, 22, 22, 22, 22, 22,
        | 27, 24, 27, 24, 32, 27, 27, 27, 27,  0, 27, 27,  0,  0, 24, 27, 27,  0, 27, 32, 32, 27, 27, 27, 27, 32,  0, 32, 24, 27, 24, 27, 24, 27, 27, 27, 24, 27, 24,  0, 22, 22, 22, 22, 22, 22, 22, 22, 22, 22, 22, 22, 22, 22, 22, 22, 22, 22, 22, 22, 22, 22, 22, 22, 22, 22, 22, 22, 22, 22, 22, 22, 22, 22, 22, 22, 22, 22, 22, 22,
        |  4,  0,  4,  0, 10,  4, 29,  4, 29, 24,  4,  4, 24, 24,  0, 29, 29, 24,  4, 10, 10,  4, 29,  4, 29, 10, 24, 10,  0, 29,  0, 29,  0, 29,  4,  4,  0, 29,  0, 24, 17, 17, 17, 17, 17, 17, 17, 17, 17, 17, 17, 17, 17, 17, 17, 17, 17, 17, 17, 17, 17, 17, 17, 17, 17, 17, 17, 17, 17, 17, 17, 17, 17, 17, 17, 17, 17, 17, 17, 17,
        | 29, 29, 29, 29, 28, 29,  0, 29,  0, 27, 29, 29, 27, 27, 29,  0,  0, 27, 29, 28, 28, 29,  0, 29,  0, 28, 27, 28, 29,  0, 29,  0, 29,  0, 29, 29, 29,  0, 29, 27, 12, 12, 12, 12, 12, 12, 12, 12, 12, 12, 12, 12, 12, 12, 12, 12, 12, 12, 12, 12, 12, 12, 12, 12, 12, 12, 12, 12, 12, 12, 12, 12, 12, 12, 12, 12, 12, 12, 12, 12,
        | 29, 29, 29, 29, 28, 29,  0, 29,  0, 27, 29, 29, 27, 27, 29,  0,  0, 27, 29, 28, 28, 29,  0, 29,  0, 28, 27, 28, 29,  0, 29,  0, 29,  0, 29, 29, 29,  0, 29, 27, 12, 12, 12, 12, 12, 12, 12, 12, 12, 12, 12, 12, 12, 12, 12, 12, 12, 12, 12, 12, 12, 12, 12, 12, 12, 12, 12, 12, 12, 12, 12, 12, 12, 12, 12, 12, 12, 12, 12, 12,
        | 27, 24, 27, 24, 32, 27, 27, 27, 27,  0, 27, 27,  0,  0, 24, 27, 27,  0, 27, 32, 32, 27, 27, 27, 27, 32,  0, 32, 24, 27, 24, 27, 24, 27, 27, 27, 24, 27, 24,  0, 22, 22, 22, 22, 22, 22, 22, 22, 22, 22, 22, 22, 22, 22, 22, 22, 22, 22, 22, 22, 22, 22, 22, 22, 22, 22, 22, 22, 22, 22, 22, 22, 22, 22, 22, 22, 22, 22, 22, 22,
        |  0,  4,  0,  4,  7,  0, 29,  0, 29, 27,  0,  0, 27, 27,  4, 29, 29, 27,  0,  7,  7,  0, 29,  0, 29,  7, 27,  7,  4, 29,  4, 29,  4, 29,  0,  0,  4, 29,  4, 27, 18, 18, 18, 18, 18, 18, 18, 18, 18, 18, 18, 18, 18, 18, 18, 18, 18, 18, 18, 18, 18, 18, 18, 18, 18, 18, 18, 18, 18, 18, 18, 18, 18, 18, 18, 18, 18, 18, 18, 18,
        |  7, 10,  7, 10,  0,  7, 28,  7, 28, 32,  7,  7, 32, 32, 10, 28, 28, 32,  7,  0,  0,  7, 28,  7, 28,  0, 32,  0, 10, 28, 10, 28, 10, 28,  7,  7, 10, 28, 10, 32, 17, 17, 17, 17, 17, 17, 17, 17, 17, 17, 17, 17, 17, 17, 17, 17, 17, 17, 17, 17, 17, 17, 17, 17, 17, 17, 17, 17, 17, 17, 17, 17, 17, 17, 17, 17, 17, 17, 17, 17,
        |  7, 10,  7, 10,  0,  7, 28,  7, 28, 32,  7,  7, 32, 32, 10, 28, 28, 32,  7,  0,  0,  7, 28,  7, 28,  0, 32,  0, 10, 28, 10, 28, 10, 28,  7,  7, 10, 28, 10, 32, 17, 17, 17, 17, 17, 17, 17, 17, 17, 17, 17, 17, 17, 17, 17, 17, 17, 17, 17, 17, 17, 17, 17, 17, 17, 17, 17, 17, 17, 17, 17, 17, 17, 17, 17, 17, 17, 17, 17, 17,
        |  0,  4,  0,  4,  7,  0, 29,  0, 29, 27,  0,  0, 27, 27,  4, 29, 29, 27,  0,  7,  7,  0, 29,  0, 29,  7, 27,  7,  4, 29,  4, 29,  4, 29,  0,  0,  4, 29,  4, 27, 18, 18, 18, 18, 18, 18, 18, 18, 18, 18, 18, 18, 18, 18, 18, 18, 18, 18, 18, 18, 18, 18, 18, 18, 18, 18, 18, 18, 18, 18, 18, 18, 18, 18, 18, 18, 18, 18, 18, 18,
        | 29, 29, 29, 29, 28, 29,  0, 29,  0, 27, 29, 29, 27, 27, 29,  0,  0, 27, 29, 28, 28, 29,  0, 29,  0, 28, 27, 28, 29,  0, 29,  0, 29,  0, 29, 29, 29,  0, 29, 27, 12, 12, 12, 12, 12, 12, 12, 12, 12, 12, 12, 12, 12, 12, 12, 12, 12, 12, 12, 12, 12, 12, 12, 12, 12, 12, 12, 12, 12, 12, 12, 12, 12, 12, 12, 12, 12, 12, 12, 12,
        |  0,  4,  0,  4,  7,  0, 29,  0, 29, 27,  0,  0, 27, 27,  4, 29, 29, 27,  0,  7,  7,  0, 29,  0, 29,  7, 27,  7,  4, 29,  4, 29,  4, 29,  0,  0,  4, 29,  4, 27, 18, 18, 18, 18, 18, 18, 18, 18, 18, 18, 18, 18, 18, 18, 18, 18, 18, 18, 18, 18, 18, 18, 18, 18, 18, 18, 18, 18, 18, 18, 18, 18, 18, 18, 18, 18, 18, 18, 18, 18,
        | 29, 29, 29, 29, 28, 29,  0, 29,  0, 27, 29, 29, 27, 27, 29,  0,  0, 27, 29, 28, 28, 29,  0, 29,  0, 28, 27, 28, 29,  0, 29,  0, 29,  0, 29, 29, 29,  0, 29, 27, 12, 12, 12, 12, 12, 12, 12, 12, 12, 12, 12, 12, 12, 12, 12, 12, 12, 12, 12, 12, 12, 12, 12, 12, 12, 12, 12, 12, 12, 12, 12, 12, 12, 12, 12, 12, 12, 12, 12, 12,
        |  7, 10,  7, 10,  0,  7, 28,  7, 28, 32,  7,  7, 32, 32, 10, 28, 28, 32,  7,  0,  0,  7, 28,  7, 28,  0, 32,  0, 10, 28, 10, 28, 10, 28,  7,  7, 10, 28, 10, 32, 17, 17, 17, 17, 17, 17, 17, 17, 17, 17, 17, 17, 17, 17, 17, 17, 17, 17, 17, 17, 17, 17, 17, 17, 17, 17, 17, 17, 17, 17, 17, 17, 17, 17, 17, 17, 17, 17, 17, 17,
        | 27, 24, 27, 24, 32, 27, 27, 27, 27,  0, 27, 27,  0,  0, 24, 27, 27,  0, 27, 32, 32, 27, 27, 27, 27, 32,  0, 32, 24, 27, 24, 27, 24, 27, 27, 27, 24, 27, 24,  0, 22, 22, 22, 22, 22, 22, 22, 22, 22, 22, 22, 22, 22, 22, 22, 22, 22, 22, 22, 22, 22, 22, 22, 22, 22, 22, 22, 22, 22, 22, 22, 22, 22, 22, 22, 22, 22, 22, 22, 22,
        |  7, 10,  7, 10,  0,  7, 28,  7, 28, 32,  7,  7, 32, 32, 10, 28, 28, 32,  7,  0,  0,  7, 28,  7, 28,  0, 32,  0, 10, 28, 10, 28, 10, 28,  7,  7, 10, 28, 10, 32, 17, 17, 17, 17, 17, 17, 17, 17, 17, 17, 17, 17, 17, 17, 17, 17, 17, 17, 17, 17, 17, 17, 17, 17, 17, 17, 17, 17, 17, 17, 17, 17, 17, 17, 17, 17, 17, 17, 17, 17,
        |  4,  0,  4,  0, 10,  4, 29,  4, 29, 24,  4,  4, 24, 24,  0, 29, 29, 24,  4, 10, 10,  4, 29,  4, 29, 10, 24, 10,  0, 29,  0, 29,  0, 29,  4,  4,  0, 29,  0, 24, 17, 17, 17, 17, 17, 17, 17, 17, 17, 17, 17, 17, 17, 17, 17, 17, 17, 17, 17, 17, 17, 17, 17, 17, 17, 17, 17, 17, 17, 17, 17, 17, 17, 17, 17, 17, 17, 17, 17, 17,
        | 29, 29, 29, 29, 28, 29,  0, 29,  0, 27, 29, 29, 27, 27, 29,  0,  0, 27, 29, 28, 28, 29,  0, 29,  0, 28, 27, 28, 29,  0, 29,  0, 29,  0, 29, 29, 29,  0, 29, 27, 12, 12, 12, 12, 12, 12, 12, 12, 12, 12, 12, 12, 12, 12, 12, 12, 12, 12, 12, 12, 12, 12, 12, 12, 12, 12, 12, 12, 12, 12, 12, 12, 12, 12, 12, 12, 12, 12, 12, 12,
        |  4,  0,  4,  0, 10,  4, 29,  4, 29, 24,  4,  4, 24, 24,  0, 29, 29, 24,  4, 10, 10,  4, 29,  4, 29, 10, 24, 10,  0, 29,  0, 29,  0, 29,  4,  4,  0, 29,  0, 24, 17, 17, 17, 17, 17, 17, 17, 17, 17, 17, 17, 17, 17, 17, 17, 17, 17, 17, 17, 17, 17, 17, 17, 17, 17, 17, 17, 17, 17, 17, 17, 17, 17, 17, 17, 17, 17, 17, 17, 17,
        | 29, 29, 29, 29, 28, 29,  0, 29,  0, 27, 29, 29, 27, 27, 29,  0,  0, 27, 29, 28, 28, 29,  0, 29,  0, 28, 27, 28, 29,  0, 29,  0, 29,  0, 29, 29, 29,  0, 29, 27, 12, 12, 12, 12, 12, 12, 12, 12, 12, 12, 12, 12, 12, 12, 12, 12, 12, 12, 12, 12, 12, 12, 12, 12, 12, 12, 12, 12, 12, 12, 12, 12, 12, 12, 12, 12, 12, 12, 12, 12,
        |  4,  0,  4,  0, 10,  4, 29,  4, 29, 24,  4,  4, 24, 24,  0, 29, 29, 24,  4, 10, 10,  4, 29,  4, 29, 10, 24, 10,  0, 29,  0, 29,  0, 29,  4,  4,  0, 29,  0, 24, 17, 17, 17, 17, 17, 17, 17, 17, 17, 17, 17, 17, 17, 17, 17, 17, 17, 17, 17, 17, 17, 17, 17, 17, 17, 17, 17, 17, 17, 17, 17, 17, 17, 17, 17, 17, 17, 17, 17, 17,
        | 29, 29, 29, 29, 28, 29,  0, 29,  0, 27, 29, 29, 27, 27, 29,  0,  0, 27, 29, 28, 28, 29,  0, 29,  0, 28, 27, 28, 29,  0, 29,  0, 29,  0, 29, 29, 29,  0, 29, 27, 12, 12, 12, 12, 12, 12, 12, 12, 12, 12, 12, 12, 12, 12, 12, 12, 12, 12, 12, 12, 12, 12, 12, 12, 12, 12, 12, 12, 12, 12, 12, 12, 12, 12, 12, 12, 12, 12, 12, 12,
        |  0,  4,  0,  4,  7,  0, 29,  0, 29, 27,  0,  0, 27, 27,  4, 29, 29, 27,  0,  7,  7,  0, 29,  0, 29,  7, 27,  7,  4, 29,  4, 29,  4, 29,  0,  0,  4, 29,  4, 27, 18, 18, 18, 18, 18, 18, 18, 18, 18, 18, 18, 18, 18, 18, 18, 18, 18, 18, 18, 18, 18, 18, 18, 18, 18, 18, 18, 18, 18, 18, 18, 18, 18, 18, 18, 18, 18, 18, 18, 18,
        |  0,  4,  0,  4,  7,  0, 29,  0, 29, 27,  0,  0, 27, 27,  4, 29, 29, 27,  0,  7,  7,  0, 29,  0, 29,  7, 27,  7,  4, 29,  4, 29,  4, 29,  0,  0,  4, 29,  4, 27, 18, 18, 18, 18, 18, 18, 18, 18, 18, 18, 18, 18, 18, 18, 18, 18, 18, 18, 18, 18, 18, 18, 18, 18, 18, 18, 18, 18, 18, 18, 18, 18, 18, 18, 18, 18, 18, 18, 18, 18,
        |  4,  0,  4,  0, 10,  4, 29,  4, 29, 24,  4,  4, 24, 24,  0, 29, 29, 24,  4, 10, 10,  4, 29,  4, 29, 10, 24, 10,  0, 29,  0, 29,  0, 29,  4,  4,  0, 29,  0, 24, 17, 17, 17, 17, 17, 17, 17, 17, 17, 17, 17, 17, 17, 17, 17, 17, 17, 17, 17, 17, 17, 17, 17, 17, 17, 17, 17, 17, 17, 17, 17, 17, 17, 17, 17, 17, 17, 17, 17, 17,
        | 29, 29, 29, 29, 28, 29,  0, 29,  0, 27, 29, 29, 27, 27, 29,  0,  0, 27, 29, 28, 28, 29,  0, 29,  0, 28, 27, 28, 29,  0, 29,  0, 29,  0, 29, 29, 29,  0, 29, 27, 12, 12, 12, 12, 12, 12, 12, 12, 12, 12, 12, 12, 12, 12, 12, 12, 12, 12, 12, 12, 12, 12, 12, 12, 12, 12, 12, 12, 12, 12, 12, 12, 12, 12, 12, 12, 12, 12, 12, 12,
        |  4,  0,  4,  0, 10,  4, 29,  4, 29, 24,  4,  4, 24, 24,  0, 29, 29, 24,  4, 10, 10,  4, 29,  4, 29, 10, 24, 10,  0, 29,  0, 29,  0, 29,  4,  4,  0, 29,  0, 24, 17, 17, 17, 17, 17, 17, 17, 17, 17, 17, 17, 17, 17, 17, 17, 17, 17, 17, 17, 17, 17, 17, 17, 17, 17, 17, 17, 17, 17, 17, 17, 17, 17, 17, 17, 17, 17, 17, 17, 17,
        | 27, 24, 27, 24, 32, 27, 27, 27, 27,  0, 27, 27,  0,  0, 24, 27, 27,  0, 27, 32, 32, 27, 27, 27, 27, 32,  0, 32, 24, 27, 24, 27, 24, 27, 27, 27, 24, 27, 24,  0, 22, 22, 22, 22, 22, 22, 22, 22, 22, 22, 22, 22, 22, 22, 22, 22, 22, 22, 22, 22, 22, 22, 22, 22, 22, 22, 22, 22, 22, 22, 22, 22, 22, 22, 22, 22, 22, 22, 22, 22,
        | 18, 17, 18, 17, 17, 18, 12, 18, 12, 22, 18, 18, 22, 22, 17, 12, 12, 22, 18, 17, 17, 18, 12, 18, 12, 17, 22, 17, 17, 12, 17, 12, 17, 12, 18, 18, 17, 12, 17, 22,  0,  0,  0,  0,  0,  0,  0,  0,  0,  0,  0,  0,  0,  0,  0,  0,  0,  0,  0,  0,  0,  0,  0,  0,  0,  0,  0,  0,  0,  0,  0,  0,  0,  0,  0,  0,  0,  0,  0,  0,
        | 18, 17, 18, 17, 17, 18, 12, 18, 12, 22, 18, 18, 22, 22, 17, 12, 12, 22, 18, 17, 17, 18, 12, 18, 12, 17, 22, 17, 17, 12, 17, 12, 17, 12, 18, 18, 17, 12, 17, 22,  0,  0,  0,  0,  0,  0,  0,  0,  0,  0,  0,  0,  0,  0,  0,  0,  0,  0,  0,  0,  0,  0,  0,  0,  0,  0,  0,  0,  0,  0,  0,  0,  0,  0,  0,  0,  0,  0,  0,  0,
        | 18, 17, 18, 17, 17, 18, 12, 18, 12, 22, 18, 18, 22, 22, 17, 12, 12, 22, 18, 17, 17, 18, 12, 18, 12, 17, 22, 17, 17, 12, 17, 12, 17, 12, 18, 18, 17, 12, 17, 22,  0,  0,  0,  0,  0,  0,  0,  0,  0,  0,  0,  0,  0,  0,  0,  0,  0,  0,  0,  0,  0,  0,  0,  0,  0,  0,  0,  0,  0,  0,  0,  0,  0,  0,  0,  0,  0,  0,  0,  0,
        | 18, 17, 18, 17, 17, 18, 12, 18, 12, 22, 18, 18, 22, 22, 17, 12, 12, 22, 18, 17, 17, 18, 12, 18, 12, 17, 22, 17, 17, 12, 17, 12, 17, 12, 18, 18, 17, 12, 17, 22,  0,  0,  0,  0,  0,  0,  0,  0,  0,  0,  0,  0,  0,  0,  0,  0,  0,  0,  0,  0,  0,  0,  0,  0,  0,  0,  0,  0,  0,  0,  0,  0,  0,  0,  0,  0,  0,  0,  0,  0,
        | 18, 17, 18, 17, 17, 18, 12, 18, 12, 22, 18, 18, 22, 22, 17, 12, 12, 22, 18, 17, 17, 18, 12, 18, 12, 17, 22, 17, 17, 12, 17, 12, 17, 12, 18, 18, 17, 12, 17, 22,  0,  0,  0,  0,  0,  0,  0,  0,  0,  0,  0,  0,  0,  0,  0,  0,  0,  0,  0,  0,  0,  0,  0,  0,  0,  0,  0,  0,  0,  0,  0,  0,  0,  0,  0,  0,  0,  0,  0,  0,
        | 18, 17, 18, 17, 17, 18, 12, 18, 12, 22, 18, 18, 22, 22, 17, 12, 12, 22, 18, 17, 17, 18, 12, 18, 12, 17, 22, 17, 17, 12, 17, 12, 17, 12, 18, 18, 17, 12, 17, 22,  0,  0,  0,  0,  0,  0,  0,  0,  0,  0,  0,  0,  0,  0,  0,  0,  0,  0,  0,  0,  0,  0,  0,  0,  0,  0,  0,  0,  0,  0,  0,  0,  0,  0,  0,  0,  0,  0,  0,  0,
        | 18, 17, 18, 17, 17, 18, 12, 18, 12, 22, 18, 18, 22, 22, 17, 12, 12, 22, 18, 17, 17, 18, 12, 18, 12, 17, 22, 17, 17, 12, 17, 12, 17, 12, 18, 18, 17, 12, 17, 22,  0,  0,  0,  0,  0,  0,  0,  0,  0,  0,  0,  0,  0,  0,  0,  0,  0,  0,  0,  0,  0,  0,  0,  0,  0,  0,  0,  0,  0,  0,  0,  0,  0,  0,  0,  0,  0,  0,  0,  0,
        | 18, 17, 18, 17, 17, 18, 12, 18, 12, 22, 18, 18, 22, 22, 17, 12, 12, 22, 18, 17, 17, 18, 12, 18, 12, 17, 22, 17, 17, 12, 17, 12, 17, 12, 18, 18, 17, 12, 17, 22,  0,  0,  0,  0,  0,  0,  0,  0,  0,  0,  0,  0,  0,  0,  0,  0,  0,  0,  0,  0,  0,  0,  0,  0,  0,  0,  0,  0,  0,  0,  0,  0,  0,  0,  0,  0,  0,  0,  0,  0,
        | 18, 17, 18, 17, 17, 18, 12, 18, 12, 22, 18, 18, 22, 22, 17, 12, 12, 22, 18, 17, 17, 18, 12, 18, 12, 17, 22, 17, 17, 12, 17, 12, 17, 12, 18, 18, 17, 12, 17, 22,  0,  0,  0,  0,  0,  0,  0,  0,  0,  0,  0,  0,  0,  0,  0,  0,  0,  0,  0,  0,  0,  0,  0,  0,  0,  0,  0,  0,  0,  0,  0,  0,  0,  0,  0,  0,  0,  0,  0,  0,
        | 18, 17, 18, 17, 17, 18, 12, 18, 12, 22, 18, 18, 22, 22, 17, 12, 12, 22, 18, 17, 17, 18, 12, 18, 12, 17, 22, 17, 17, 12, 17, 12, 17, 12, 18, 18, 17, 12, 17, 22,  0,  0,  0,  0,  0,  0,  0,  0,  0,  0,  0,  0,  0,  0,  0,  0,  0,  0,  0,  0,  0,  0,  0,  0,  0,  0,  0,  0,  0,  0,  0,  0,  0,  0,  0,  0,  0,  0,  0,  0,
        | 18, 17, 18, 17, 17, 18, 12, 18, 12, 22, 18, 18, 22, 22, 17, 12, 12, 22, 18, 17, 17, 18, 12, 18, 12, 17, 22, 17, 17, 12, 17, 12, 17, 12, 18, 18, 17, 12, 17, 22,  0,  0,  0,  0,  0,  0,  0,  0,  0,  0,  0,  0,  0,  0,  0,  0,  0,  0,  0,  0,  0,  0,  0,  0,  0,  0,  0,  0,  0,  0,  0,  0,  0,  0,  0,  0,  0,  0,  0,  0,
        | 18, 17, 18, 17, 17, 18, 12, 18, 12, 22, 18, 18, 22, 22, 17, 12, 12, 22, 18, 17, 17, 18, 12, 18, 12, 17, 22, 17, 17, 12, 17, 12, 17, 12, 18, 18, 17, 12, 17, 22,  0,  0,  0,  0,  0,  0,  0,  0,  0,  0,  0,  0,  0,  0,  0,  0,  0,  0,  0,  0,  0,  0,  0,  0,  0,  0,  0,  0,  0,  0,  0,  0,  0,  0,  0,  0,  0,  0,  0,  0,
        | 18, 17, 18, 17, 17, 18, 12, 18, 12, 22, 18, 18, 22, 22, 17, 12, 12, 22, 18, 17, 17, 18, 12, 18, 12, 17, 22, 17, 17, 12, 17, 12, 17, 12, 18, 18, 17, 12, 17, 22,  0,  0,  0,  0,  0,  0,  0,  0,  0,  0,  0,  0,  0,  0,  0,  0,  0,  0,  0,  0,  0,  0,  0,  0,  0,  0,  0,  0,  0,  0,  0,  0,  0,  0,  0,  0,  0,  0,  0,  0,
        | 18, 17, 18, 17, 17, 18, 12, 18, 12, 22, 18, 18, 22, 22, 17, 12, 12, 22, 18, 17, 17, 18, 12, 18, 12, 17, 22, 17, 17, 12, 17, 12, 17, 12, 18, 18, 17, 12, 17, 22,  0,  0,  0,  0,  0,  0,  0,  0,  0,  0,  0,  0,  0,  0,  0,  0,  0,  0,  0,  0,  0,  0,  0,  0,  0,  0,  0,  0,  0,  0,  0,  0,  0,  0,  0,  0,  0,  0,  0,  0,
        | 18, 17, 18, 17, 17, 18, 12, 18, 12, 22, 18, 18, 22, 22, 17, 12, 12, 22, 18, 17, 17, 18, 12, 18, 12, 17, 22, 17, 17, 12, 17, 12, 17, 12, 18, 18, 17, 12, 17, 22,  0,  0,  0,  0,  0,  0,  0,  0,  0,  0,  0,  0,  0,  0,  0,  0,  0,  0,  0,  0,  0,  0,  0,  0,  0,  0,  0,  0,  0,  0,  0,  0,  0,  0,  0,  0,  0,  0,  0,  0,
        | 18, 17, 18, 17, 17, 18, 12, 18, 12, 22, 18, 18, 22, 22, 17, 12, 12, 22, 18, 17, 17, 18, 12, 18, 12, 17, 22, 17, 17, 12, 17, 12, 17, 12, 18, 18, 17, 12, 17, 22,  0,  0,  0,  0,  0,  0,  0,  0,  0,  0,  0,  0,  0,  0,  0,  0,  0,  0,  0,  0,  0,  0,  0,  0,  0,  0,  0,  0,  0,  0,  0,  0,  0,  0,  0,  0,  0,  0,  0,  0,
        | 18, 17, 18, 17, 17, 18, 12, 18, 12, 22, 18, 18, 22, 22, 17, 12, 12, 22, 18, 17, 17, 18, 12, 18, 12, 17, 22, 17, 17, 12, 17, 12, 17, 12, 18, 18, 17, 12, 17, 22,  0,  0,  0,  0,  0,  0,  0,  0,  0,  0,  0,  0,  0,  0,  0,  0,  0,  0,  0,  0,  0,  0,  0,  0,  0,  0,  0,  0,  0,  0,  0,  0,  0,  0,  0,  0,  0,  0,  0,  0,
        | 18, 17, 18, 17, 17, 18, 12, 18, 12, 22, 18, 18, 22, 22, 17, 12, 12, 22, 18, 17, 17, 18, 12, 18, 12, 17, 22, 17, 17, 12, 17, 12, 17, 12, 18, 18, 17, 12, 17, 22,  0,  0,  0,  0,  0,  0,  0,  0,  0,  0,  0,  0,  0,  0,  0,  0,  0,  0,  0,  0,  0,  0,  0,  0,  0,  0,  0,  0,  0,  0,  0,  0,  0,  0,  0,  0,  0,  0,  0,  0,
        | 18, 17, 18, 17, 17, 18, 12, 18, 12, 22, 18, 18, 22, 22, 17, 12, 12, 22, 18, 17, 17, 18, 12, 18, 12, 17, 22, 17, 17, 12, 17, 12, 17, 12, 18, 18, 17, 12, 17, 22,  0,  0,  0,  0,  0,  0,  0,  0,  0,  0,  0,  0,  0,  0,  0,  0,  0,  0,  0,  0,  0,  0,  0,  0,  0,  0,  0,  0,  0,  0,  0,  0,  0,  0,  0,  0,  0,  0,  0,  0,
        | 18, 17, 18, 17, 17, 18, 12, 18, 12, 22, 18, 18, 22, 22, 17, 12, 12, 22, 18, 17, 17, 18, 12, 18, 12, 17, 22, 17, 17, 12, 17, 12, 17, 12, 18, 18, 17, 12, 17, 22,  0,  0,  0,  0,  0,  0,  0,  0,  0,  0,  0,  0,  0,  0,  0,  0,  0,  0,  0,  0,  0,  0,  0,  0,  0,  0,  0,  0,  0,  0,  0,  0,  0,  0,  0,  0,  0,  0,  0,  0,
        | 18, 17, 18, 17, 17, 18, 12, 18, 12, 22, 18, 18, 22, 22, 17, 12, 12, 22, 18, 17, 17, 18, 12, 18, 12, 17, 22, 17, 17, 12, 17, 12, 17, 12, 18, 18, 17, 12, 17, 22,  0,  0,  0,  0,  0,  0,  0,  0,  0,  0,  0,  0,  0,  0,  0,  0,  0,  0,  0,  0,  0,  0,  0,  0,  0,  0,  0,  0,  0,  0,  0,  0,  0,  0,  0,  0,  0,  0,  0,  0,
        | 18, 17, 18, 17, 17, 18, 12, 18, 12, 22, 18, 18, 22, 22, 17, 12, 12, 22, 18, 17, 17, 18, 12, 18, 12, 17, 22, 17, 17, 12, 17, 12, 17, 12, 18, 18, 17, 12, 17, 22,  0,  0,  0,  0,  0,  0,  0,  0,  0,  0,  0,  0,  0,  0,  0,  0,  0,  0,  0,  0,  0,  0,  0,  0,  0,  0,  0,  0,  0,  0,  0,  0,  0,  0,  0,  0,  0,  0,  0,  0,
        | 18, 17, 18, 17, 17, 18, 12, 18, 12, 22, 18, 18, 22, 22, 17, 12, 12, 22, 18, 17, 17, 18, 12, 18, 12, 17, 22, 17, 17, 12, 17, 12, 17, 12, 18, 18, 17, 12, 17, 22,  0,  0,  0,  0,  0,  0,  0,  0,  0,  0,  0,  0,  0,  0,  0,  0,  0,  0,  0,  0,  0,  0,  0,  0,  0,  0,  0,  0,  0,  0,  0,  0,  0,  0,  0,  0,  0,  0,  0,  0,
        | 18, 17, 18, 17, 17, 18, 12, 18, 12, 22, 18, 18, 22, 22, 17, 12, 12, 22, 18, 17, 17, 18, 12, 18, 12, 17, 22, 17, 17, 12, 17, 12, 17, 12, 18, 18, 17, 12, 17, 22,  0,  0,  0,  0,  0,  0,  0,  0,  0,  0,  0,  0,  0,  0,  0,  0,  0,  0,  0,  0,  0,  0,  0,  0,  0,  0,  0,  0,  0,  0,  0,  0,  0,  0,  0,  0,  0,  0,  0,  0,
        | 18, 17, 18, 17, 17, 18, 12, 18, 12, 22, 18, 18, 22, 22, 17, 12, 12, 22, 18, 17, 17, 18, 12, 18, 12, 17, 22, 17, 17, 12, 17, 12, 17, 12, 18, 18, 17, 12, 17, 22,  0,  0,  0,  0,  0,  0,  0,  0,  0,  0,  0,  0,  0,  0,  0,  0,  0,  0,  0,  0,  0,  0,  0,  0,  0,  0,  0,  0,  0,  0,  0,  0,  0,  0,  0,  0,  0,  0,  0,  0,
        | 18, 17, 18, 17, 17, 18, 12, 18, 12, 22, 18, 18, 22, 22, 17, 12, 12, 22, 18, 17, 17, 18, 12, 18, 12, 17, 22, 17, 17, 12, 17, 12, 17, 12, 18, 18, 17, 12, 17, 22,  0,  0,  0,  0,  0,  0,  0,  0,  0,  0,  0,  0,  0,  0,  0,  0,  0,  0,  0,  0,  0,  0,  0,  0,  0,  0,  0,  0,  0,  0,  0,  0,  0,  0,  0,  0,  0,  0,  0,  0,
        | 18, 17, 18, 17, 17, 18, 12, 18, 12, 22, 18, 18, 22, 22, 17, 12, 12, 22, 18, 17, 17, 18, 12, 18, 12, 17, 22, 17, 17, 12, 17, 12, 17, 12, 18, 18, 17, 12, 17, 22,  0,  0,  0,  0,  0,  0,  0,  0,  0,  0,  0,  0,  0,  0,  0,  0,  0,  0,  0,  0,  0,  0,  0,  0,  0,  0,  0,  0,  0,  0,  0,  0,  0,  0,  0,  0,  0,  0,  0,  0,
        | 18, 17, 18, 17, 17, 18, 12, 18, 12, 22, 18, 18, 22, 22, 17, 12, 12, 22, 18, 17, 17, 18, 12, 18, 12, 17, 22, 17, 17, 12, 17, 12, 17, 12, 18, 18, 17, 12, 17, 22,  0,  0,  0,  0,  0,  0,  0,  0,  0,  0,  0,  0,  0,  0,  0,  0,  0,  0,  0,  0,  0,  0,  0,  0,  0,  0,  0,  0,  0,  0,  0,  0,  0,  0,  0,  0,  0,  0,  0,  0,
        | 18, 17, 18, 17, 17, 18, 12, 18, 12, 22, 18, 18, 22, 22, 17, 12, 12, 22, 18, 17, 17, 18, 12, 18, 12, 17, 22, 17, 17, 12, 17, 12, 17, 12, 18, 18, 17, 12, 17, 22,  0,  0,  0,  0,  0,  0,  0,  0,  0,  0,  0,  0,  0,  0,  0,  0,  0,  0,  0,  0,  0,  0,  0,  0,  0,  0,  0,  0,  0,  0,  0,  0,  0,  0,  0,  0,  0,  0,  0,  0,
        | 18, 17, 18, 17, 17, 18, 12, 18, 12, 22, 18, 18, 22, 22, 17, 12, 12, 22, 18, 17, 17, 18, 12, 18, 12, 17, 22, 17, 17, 12, 17, 12, 17, 12, 18, 18, 17, 12, 17, 22,  0,  0,  0,  0,  0,  0,  0,  0,  0,  0,  0,  0,  0,  0,  0,  0,  0,  0,  0,  0,  0,  0,  0,  0,  0,  0,  0,  0,  0,  0,  0,  0,  0,  0,  0,  0,  0,  0,  0,  0,
        | 18, 17, 18, 17, 17, 18, 12, 18, 12, 22, 18, 18, 22, 22, 17, 12, 12, 22, 18, 17, 17, 18, 12, 18, 12, 17, 22, 17, 17, 12, 17, 12, 17, 12, 18, 18, 17, 12, 17, 22,  0,  0,  0,  0,  0,  0,  0,  0,  0,  0,  0,  0,  0,  0,  0,  0,  0,  0,  0,  0,  0,  0,  0,  0,  0,  0,  0,  0,  0,  0,  0,  0,  0,  0,  0,  0,  0,  0,  0,  0,
        | 18, 17, 18, 17, 17, 18, 12, 18, 12, 22, 18, 18, 22, 22, 17, 12, 12, 22, 18, 17, 17, 18, 12, 18, 12, 17, 22, 17, 17, 12, 17, 12, 17, 12, 18, 18, 17, 12, 17, 22,  0,  0,  0,  0,  0,  0,  0,  0,  0,  0,  0,  0,  0,  0,  0,  0,  0,  0,  0,  0,  0,  0,  0,  0,  0,  0,  0,  0,  0,  0,  0,  0,  0,  0,  0,  0,  0,  0,  0,  0,
        | 18, 17, 18, 17, 17, 18, 12, 18, 12, 22, 18, 18, 22, 22, 17, 12, 12, 22, 18, 17, 17, 18, 12, 18, 12, 17, 22, 17, 17, 12, 17, 12, 17, 12, 18, 18, 17, 12, 17, 22,  0,  0,  0,  0,  0,  0,  0,  0,  0,  0,  0,  0,  0,  0,  0,  0,  0,  0,  0,  0,  0,  0,  0,  0,  0,  0,  0,  0,  0,  0,  0,  0,  0,  0,  0,  0,  0,  0,  0,  0,
        | 18, 17, 18, 17, 17, 18, 12, 18, 12, 22, 18, 18, 22, 22, 17, 12, 12, 22, 18, 17, 17, 18, 12, 18, 12, 17, 22, 17, 17, 12, 17, 12, 17, 12, 18, 18, 17, 12, 17, 22,  0,  0,  0,  0,  0,  0,  0,  0,  0,  0,  0,  0,  0,  0,  0,  0,  0,  0,  0,  0,  0,  0,  0,  0,  0,  0,  0,  0,  0,  0,  0,  0,  0,  0,  0,  0,  0,  0,  0,  0,
        | 18, 17, 18, 17, 17, 18, 12, 18, 12, 22, 18, 18, 22, 22, 17, 12, 12, 22, 18, 17, 17, 18, 12, 18, 12, 17, 22, 17, 17, 12, 17, 12, 17, 12, 18, 18, 17, 12, 17, 22,  0,  0,  0,  0,  0,  0,  0,  0,  0,  0,  0,  0,  0,  0,  0,  0,  0,  0,  0,  0,  0,  0,  0,  0,  0,  0,  0,  0,  0,  0,  0,  0,  0,  0,  0,  0,  0,  0,  0,  0,
        | 18, 17, 18, 17, 17, 18, 12, 18, 12, 22, 18, 18, 22, 22, 17, 12, 12, 22, 18, 17, 17, 18, 12, 18, 12, 17, 22, 17, 17, 12, 17, 12, 17, 12, 18, 18, 17, 12, 17, 22,  0,  0,  0,  0,  0,  0,  0,  0,  0,  0,  0,  0,  0,  0,  0,  0,  0,  0,  0,  0,  0,  0,  0,  0,  0,  0,  0,  0,  0,  0,  0,  0,  0,  0,  0,  0,  0,  0,  0,  0,
        | 18, 17, 18, 17, 17, 18, 12, 18, 12, 22, 18, 18, 22, 22, 17, 12, 12, 22, 18, 17, 17, 18, 12, 18, 12, 17, 22, 17, 17, 12, 17, 12, 17, 12, 18, 18, 17, 12, 17, 22,  0,  0,  0,  0,  0,  0,  0,  0,  0,  0,  0,  0,  0,  0,  0,  0,  0,  0,  0,  0,  0,  0,  0,  0,  0,  0,  0,  0,  0,  0,  0,  0,  0,  0,  0,  0,  0,  0,  0,  0,
        | 18, 17, 18, 17, 17, 18, 12, 18, 12, 22, 18, 18, 22, 22, 17, 12, 12, 22, 18, 17, 17, 18, 12, 18, 12, 17, 22, 17, 17, 12, 17, 12, 17, 12, 18, 18, 17, 12, 17, 22,  0,  0,  0,  0,  0,  0,  0,  0,  0,  0,  0,  0,  0,  0,  0,  0,  0,  0,  0,  0,  0,  0,  0,  0,  0,  0,  0,  0,  0,  0,  0,  0,  0,  0,  0,  0,  0,  0,  0,  0,
        | 18, 17, 18, 17, 17, 18, 12, 18, 12, 22, 18, 18, 22, 22, 17, 12, 12, 22, 18, 17, 17, 18, 12, 18, 12, 17, 22, 17, 17, 12, 17, 12, 17, 12, 18, 18, 17, 12, 17, 22,  0,  0,  0,  0,  0,  0,  0,  0,  0,  0,  0,  0,  0,  0,  0,  0,  0,  0,  0,  0,  0,  0,  0,  0,  0,  0,  0,  0,  0,  0,  0,  0,  0,  0,  0,  0,  0,  0,  0,  0,
        | 18, 17, 18, 17, 17, 18, 12, 18, 12, 22, 18, 18, 22, 22, 17, 12, 12, 22, 18, 17, 17, 18, 12, 18, 12, 17, 22, 17, 17, 12, 17, 12, 17, 12, 18, 18, 17, 12, 17, 22,  0,  0,  0,  0,  0,  0,  0,  0,  0,  0,  0,  0,  0,  0,  0,  0,  0,  0,  0,  0,  0,  0,  0,  0,  0,  0,  0,  0,  0,  0,  0,  0,  0,  0,  0,  0,  0,  0,  0,  0|];
l =     [  1,  3,  1,  3,  5,  1,  2,  1,  2,  4,  1,  1,  4,  4,  3,  2,  2,  4,  1,  5,  5,  1,  2,  1,  2,  5,  4,  5,  3,  2,  3,  2,  3,  2,  1,  1,  3,  2,  3,  4];
a =     [ 18, 24, 18, 17, 17, 31, 22, 47, 18, 22, 52, 18, 22, 23, 17, 12, 21, 22, 31, 17, 39, 41, 63, 38, 63, 52, 64, 72, 57, 64, 70, 57, 57, 68, 36, 52, 64, 61, 50, 62];
b =     [ 52, 46, 33, 50, 33, 56, 48, 73, 48, 38, 89, 53, 61, 45, 44, 47, 40, 57, 57, 47, 93, 89,121,101,120, 94,112,112,105,119,111, 97,115,111,101,117,119,107,110,113];
s =     [ 14, 13, 16, 17, 18, 14, 15, 18, 10, 15, 14, 10, 11, 18, 15, 11, 14, 12, 15, 13, 14, 13, 16, 17, 18, 14, 15, 18, 10, 15, 14, 10, 11, 18, 15, 11, 14, 12, 15, 13];
q =     [  1,  3,  3,  4,  4,  2,  1,  2,  2,  1,  2,  4,  4,  2,  2,  4,  3,  2,  1,  2, -1, -3, -3, -4, -4, -2, -1, -2, -2, -1, -2, -4, -4, -2, -2, -4, -3, -2, -1, -2];
